c 변수 10개, 절 25개 (Strict 3-SAT, UNSAT Case)
p cnf 10 25
1 2 3 0
1 2 -3 0
1 -2 3 0
1 -2 -3 0
-1 4 5 0
-1 4 -5 0
-1 -4 5 0
-1 -4 -5 0
2 6 7 0
2 6 -7 0
2 -6 7 0
2 -6 -7 0
-2 8 9 0
-2 8 -9 0
-2 -8 9 0
-2 -8 -9 0
3 5 10 0
3 5 -10 0
3 -5 10 0
3 -5 -10 0
-3 7 10 0
-3 7 -10 0
-3 -7 10 0
-3 -7 -10 0
1 2 4 0
%
0